
#################################################################
################ Immutable Constant Variables ###################
#################################################################

#Charge
variable        c equal 1
variable        charge_pos equal  $c
variable        charge_neg equal -$c

#Mass 
variable        mass_pos equal 22.9898
variable        mass_neg equal 35.453
variable        mass_graph equal 12.0107 

#LJ Sigmas
variable        diameter_pos equal 2.35
variable        diameter_neg equal 4.401
variable        diameter_graph equal 3.214

#LJ Epsilon
variable        well_depth_pos equal .123
variable        well_depth_neg equal .1
variable        well_depth_graph equal .0566

#################################################################
###################### General Setup ############################
#################################################################

#Water attributes


units           real
atom_style      full
boundary        p p p
pair_style      lj/cut/coul/long  ${lj_cutoff}
pair_modify     mix arithmetic tail yes
kspace_style    ewald 0.0001
bond_style      harmonic
angle_style     harmonic

#################################################################
############################ The Box ############################
#################################################################

# box, start molecules on simple cubic lattice

lattice         sc ${spacing}
region          box block 0 ${xlim} 0 ${ylim} 0 ${zlim} units box

create_box      5 box                       &
                bond/types 1                &
                angle/types 1               &
                extra/bond/per/atom 2       &
                extra/angle/per/atom 1      &
                extra/special/per/atom 2
# 
variable        zlow_safe equal ${safety_z}
variable        zhigh_safe equal ${width}-${safety_z}
region          safe_space block 0 ${xlim} 0 ${ylim} ${zlow_safe} ${zhigh_safe} units box
region          sim_space block 0 ${xlim} 0 ${ylim} 0 ${width} units box
region          empty_space block 0 ${xlim} 0 ${ylim} ${width} $(zhi) units box


#################################################################
####################### Assign Constants ########################
#################################################################

# pair coefficients

pair_coeff      1 1 0.15535 3.166
pair_coeff      2 2 0.0 0.0
pair_coeff      3 3 ${well_depth_pos} ${diameter_pos}
pair_coeff      4 4 ${well_depth_neg} ${diameter_neg}
pair_coeff      5 5 ${well_depth_graph} ${diameter_graph}

# other coeffs

bond_coeff      1     1000       1.0   
angle_coeff     1      100       109.47

# masses

mass            1 15.9994 
mass            2 1.0
mass            3 ${mass_pos}
mass            4 ${mass_neg}
mass            5 ${mass_graph}

#################################################################
######################### Create Atoms ##########################
#################################################################
variable        water_density equal 1
variable        water_num equal floor(v_water_density*${boxlength}^3/18) #mass 
variable        water_num equal 25 

# water
molecule        h2omol H2O.txt
create_atoms    0 random ${N_water} 12345 safe_space mol h2omol 1123

# # water
# molecule        h2omol H2O.txt
# create_atoms    0 region safe_space mol h2omol ${seed} 

# ions
create_atoms    3 random ${NN} ${seed}  safe_space
create_atoms    4 random ${NN} ${seed2} safe_space

# graphene
read_data       graphene_x2y2.lmp add append shift 0 0 0        offset 4 0 0 0 0
read_data       graphene_x2y2.lmp add append shift 0 0 ${width} offset 4 0 0 0 0

#################################################################
######################### Group Atoms ##########################
#################################################################

group           h2o type 1 2
group           positive type 3
group           negative type 4
group           ions union positive negative
group           moving union ions h2o
group           graphene type 5

#################################################################
######################### More Settings #########################
#################################################################

# Graphene shouldn't move

fix             fixwalls graphene setforce 0 0 0 

# Add charge
set             type 3 charge ${charge_pos}
set             type 4 charge ${charge_neg}

# MD settings

velocity       	moving create ${temp} ${seed2}
timestep        ${timestep}

# neighbor        0.9 bin
# neigh_modify    delay 0 one 5000 page 50000

minimize        0.0 0.0 100 1000
reset_timestep  0