#################################################################
######################### Output ################################
#################################################################


# count atoms 

variable        oxygen atom "type==1"
variable        hydrogen atom "type==2"
variable        pos atom "type==3"
variable        neg atom "type==4"

group           oxygen dynamic all var oxygen
group           hydrogen dynamic all var hydrogen
group           pos dynamic all var pos
group           neg dynamic all var neg

variable        nO equal count(oxygen)
variable        nH equal count(hydrogen)
variable        nP equal count(pos)
variable        nN equal count(neg)

# Thermo to print
variable        ptime equal time
variable        ppress equal press
variable        pdensity equal density
variable        ptemp equal temp

# variable        effect_vol equal (xhi-xlo)*(yhi-ylo)*(${width}-zlo)
variable        effect_vol equal ${xlim}*${ylim}*(${width})
variable        effect_dens equal mass(moving,sim_space)
# variable        effect_dens equal mass(moving)/${effect_vol}
variable        illegal_vol equal (xhi-xlo)*(yhi-ylo)*(zhi-${width})
variable        illegal_dens equal mass(sim_space,moving)/${illegal_vol}


variable        vxq atom vx*q 
variable        vyq atom vy*q 
variable        vzq atom vz*q 
compute         curr_x all reduce sum v_vxq
compute         curr_y all reduce sum v_vyq
compute         curr_z all reduce sum v_vzq
variable        curr_y equal c_curr_y/(yhi-ylo)
variable        curr_x equal c_curr_x/(xhi-xlo)
variable        EE equal ${E_max}
thermo_style    custom step temp v_EE v_curr_y
thermo          ${thermo_every}

fix             myprint all print ${print_every} &
                "$(time),$(temp),$(density),${NN},${E_max},${curr_x},${curr_y}" &
                title "" append ${thermo_file} screen no 


# Dump
if ${do_dump} then &
    " dump            myDump all xyz ${dump_every} ${dump_file_efield} " &
    " dump_modify     myDump element O H Na Cl C                "